Version identifier: 22.1.0.0 | 2022-03-09 | 1a383f8ce
CPXPARAM_Threads                                 1
CPXPARAM_MIP_Strategy_VariableSelect             3
CPXPARAM_TimeLimit                               599.99999252299995
1 of 1 MIP starts provided solutions.
MIP start 'm1' defined initial solution with objective 315.0000.
Tried aggregator 1 time.
MIP Presolve eliminated 330 rows and 1260 columns.
MIP Presolve modified 40 coefficients.
Reduced MIP has 1888 rows, 2835 columns, and 70678 nonzeros.
Reduced MIP has 2835 binaries, 0 generals, 0 SOSs, and 0 indicators.
Presolve time = 0.08 sec. (118.21 ticks)
Probing time = 0.01 sec. (11.77 ticks)
Tried aggregator 1 time.
Detecting symmetries...
MIP Presolve modified 9 coefficients.
Reduced MIP has 1888 rows, 2835 columns, and 70804 nonzeros.
Reduced MIP has 2835 binaries, 0 generals, 0 SOSs, and 0 indicators.
Presolve time = 0.07 sec. (106.51 ticks)
Probing time = 0.01 sec. (11.78 ticks)
Clique table members: 1255.
MIP emphasis: balance optimality and feasibility.
MIP search method: dynamic search.
Parallel mode: none, using 1 thread.
Root relaxation solution time = 0.01 sec. (9.14 ticks)

        Nodes                                         Cuts/
   Node  Left     Objective  IInf  Best Integer    Best Bound    ItCnt     Gap

*     0+    0                          315.0000    49770.0000              --- 
      0     0        cutoff            315.0000                      9     --- 

Root node processing (before b&c):
  Real time             =    0.24 sec. (302.17 ticks)
Sequential b&c:
  Real time             =    0.00 sec. (0.00 ticks)
                          ------------
Total (root+branch&cut) =    0.24 sec. (302.17 ticks)
Primal:	315
Dual:	315
Status:	Optimal
Time:	0.28
Sequence:
	0
	6
	9
	10
	9
	6
	8
	1
	9
	5
	8
	1
	9
	5
	9
	9
	0
	1
	9
	0
	9
	4
	5
	9
	0
	1
	4
	4
	10
	4
	10
	0
	4
	9
	4
	10
	9
	4
	5
	9
	9
	1
	0
	1
	4
	0
	5
	9
	9
	6
	4
	0
	1
	9
	0
	9
	4
	9
	0
	1
	9
	4
	1
	4
	1
	0
	6
	9
	9
	1
	4
	4
	0
	9
	4
	1
	0
	4
	1
	4
	4
	9
	0
	4
	4
	9
	1
	0
	6
	9
	9
	9
	4
	0
	4
	1
	9
	9
	4
	4
	9
	4
	1
	0
	1
	4
	0
	4
	4
	1
	0
	1
	9
	6
	4
	9
	4
	9
	0
	1
	9
	9
	0
	4
	1
	9
	1
	0
	1
	4
	1
	4
	9
	4
	4
	1
	0
	9
	4
	1
	0
	1
	4
	9
	0
	6
	4
	1
	0
	1
	9
	9
	1
	4
	1
	0
	9
	9
	4
	4
	9
	6
	4
	0
	1
	4
	1
	4
	1
	9
	4
	4
	0
	1
	9
	6
	0
	4
	9
	0
	9
	1
	9
	1
	9
	6
	4
	1
	9
	9
	4
	9
	1
	9
	1
	4
	4
	9
	9
	4
	9
	9
	6
	4
	9
	1
	9
	4
	9
	9
	9
	6
	9
	4
	1
	4
	1
	9
	1
	4
	6
	9
	1
	4
	6
	9
	1
	4
	6
	9
	1
	9
	6
	9
	4
	4
	9
	9
	9
	4
	4
	9
	4
	4
	9
	9
	4
	9
	4
	9
	9
	4
	4
	9
	4
	9
	9
	9
	9
	9
	4
	4
	9
	9
	9
	9
	4
	4
	9
	9
	4
	9
	4
	9
	9
	9
	4
	9
	4
	4
	9
	4
	4
	9
	4
	4
	9
	4
	4
	9
	9
	4
	9
	4
	9
	4
	9
	9
	9
	4
	9
	9
	9
	9
	4
	4
	9
	4
	9
	4
	4
	9
	4
	9
	9
